# 17793
param k := 6;
param n := 60;
param s := 1;
set E :=  (0,17) (1,37) (1,44) (1,45) (1,56) (2,8) (2,46) (3,33) (4,29) (4,39) (4,57) (5,27) (6,32) (6,38) (7,56) (8,54) (9,29) (10,17) (10,33) (11,13) (12,35) (13,14) (13,26) (14,31) (15,21) (15,23) (16,30) (16,58) (17,35) (18,24) (18,31) (18,43) (19,53) (20,51) (22,44) (23,29) (23,40) (23,46) (25,36) (25,39) (25,59) (27,43) (27,51) (28,38) (31,53) (33,45) (33,53) (34,43) (35,38) (37,41) (37,47) (39,50) (42,44) (42,52) (42,55) (42,57) (46,49) (47,48) (52,58);